60

 0   1   2   3   1   2   3   4   2   3   4   5   3   4   5   6   4   5   6   7   5   6   7   8   6   7   8   9   7   8   9  10   8   9  10  11   9  10  11  12  10  11  12  13  11  12  13  14  12  13  14  15  13  14  15  16  14  15  16  17  
 1   0   1   2   2   1   2   3   3   2   3   4   4   3   4   5   5   4   5   6   6   5   6   7   7   6   7   8   8   7   8   9   9   8   9  10  10   9  10  11  11  10  11  12  12  11  12  13  13  12  13  14  14  13  14  15  15  14  15  16  
 2   1   0   1   3   2   1   2   4   3   2   3   5   4   3   4   6   5   4   5   7   6   5   6   8   7   6   7   9   8   7   8  10   9   8   9  11  10   9  10  12  11  10  11  13  12  11  12  14  13  12  13  15  14  13  14  16  15  14  15  
 3   2   1   0   4   3   2   1   5   4   3   2   6   5   4   3   7   6   5   4   8   7   6   5   9   8   7   6  10   9   8   7  11  10   9   8  12  11  10   9  13  12  11  10  14  13  12  11  15  14  13  12  16  15  14  13  17  16  15  14  
 1   2   3   4   0   1   2   3   1   2   3   4   2   3   4   5   3   4   5   6   4   5   6   7   5   6   7   8   6   7   8   9   7   8   9  10   8   9  10  11   9  10  11  12  10  11  12  13  11  12  13  14  12  13  14  15  13  14  15  16  
 2   1   2   3   1   0   1   2   2   1   2   3   3   2   3   4   4   3   4   5   5   4   5   6   6   5   6   7   7   6   7   8   8   7   8   9   9   8   9  10  10   9  10  11  11  10  11  12  12  11  12  13  13  12  13  14  14  13  14  15  
 3   2   1   2   2   1   0   1   3   2   1   2   4   3   2   3   5   4   3   4   6   5   4   5   7   6   5   6   8   7   6   7   9   8   7   8  10   9   8   9  11  10   9  10  12  11  10  11  13  12  11  12  14  13  12  13  15  14  13  14  
 4   3   2   1   3   2   1   0   4   3   2   1   5   4   3   2   6   5   4   3   7   6   5   4   8   7   6   5   9   8   7   6  10   9   8   7  11  10   9   8  12  11  10   9  13  12  11  10  14  13  12  11  15  14  13  12  16  15  14  13  
 2   3   4   5   1   2   3   4   0   1   2   3   1   2   3   4   2   3   4   5   3   4   5   6   4   5   6   7   5   6   7   8   6   7   8   9   7   8   9  10   8   9  10  11   9  10  11  12  10  11  12  13  11  12  13  14  12  13  14  15  
 3   2   3   4   2   1   2   3   1   0   1   2   2   1   2   3   3   2   3   4   4   3   4   5   5   4   5   6   6   5   6   7   7   6   7   8   8   7   8   9   9   8   9  10  10   9  10  11  11  10  11  12  12  11  12  13  13  12  13  14  
 4   3   2   3   3   2   1   2   2   1   0   1   3   2   1   2   4   3   2   3   5   4   3   4   6   5   4   5   7   6   5   6   8   7   6   7   9   8   7   8  10   9   8   9  11  10   9  10  12  11  10  11  13  12  11  12  14  13  12  13  
 5   4   3   2   4   3   2   1   3   2   1   0   4   3   2   1   5   4   3   2   6   5   4   3   7   6   5   4   8   7   6   5   9   8   7   6  10   9   8   7  11  10   9   8  12  11  10   9  13  12  11  10  14  13  12  11  15  14  13  12  
 3   4   5   6   2   3   4   5   1   2   3   4   0   1   2   3   1   2   3   4   2   3   4   5   3   4   5   6   4   5   6   7   5   6   7   8   6   7   8   9   7   8   9  10   8   9  10  11   9  10  11  12  10  11  12  13  11  12  13  14  
 4   3   4   5   3   2   3   4   2   1   2   3   1   0   1   2   2   1   2   3   3   2   3   4   4   3   4   5   5   4   5   6   6   5   6   7   7   6   7   8   8   7   8   9   9   8   9  10  10   9  10  11  11  10  11  12  12  11  12  13  
 5   4   3   4   4   3   2   3   3   2   1   2   2   1   0   1   3   2   1   2   4   3   2   3   5   4   3   4   6   5   4   5   7   6   5   6   8   7   6   7   9   8   7   8  10   9   8   9  11  10   9  10  12  11  10  11  13  12  11  12  
 6   5   4   3   5   4   3   2   4   3   2   1   3   2   1   0   4   3   2   1   5   4   3   2   6   5   4   3   7   6   5   4   8   7   6   5   9   8   7   6  10   9   8   7  11  10   9   8  12  11  10   9  13  12  11  10  14  13  12  11  
 4   5   6   7   3   4   5   6   2   3   4   5   1   2   3   4   0   1   2   3   1   2   3   4   2   3   4   5   3   4   5   6   4   5   6   7   5   6   7   8   6   7   8   9   7   8   9  10   8   9  10  11   9  10  11  12  10  11  12  13  
 5   4   5   6   4   3   4   5   3   2   3   4   2   1   2   3   1   0   1   2   2   1   2   3   3   2   3   4   4   3   4   5   5   4   5   6   6   5   6   7   7   6   7   8   8   7   8   9   9   8   9  10  10   9  10  11  11  10  11  12  
 6   5   4   5   5   4   3   4   4   3   2   3   3   2   1   2   2   1   0   1   3   2   1   2   4   3   2   3   5   4   3   4   6   5   4   5   7   6   5   6   8   7   6   7   9   8   7   8  10   9   8   9  11  10   9  10  12  11  10  11  
 7   6   5   4   6   5   4   3   5   4   3   2   4   3   2   1   3   2   1   0   4   3   2   1   5   4   3   2   6   5   4   3   7   6   5   4   8   7   6   5   9   8   7   6  10   9   8   7  11  10   9   8  12  11  10   9  13  12  11  10  
 5   6   7   8   4   5   6   7   3   4   5   6   2   3   4   5   1   2   3   4   0   1   2   3   1   2   3   4   2   3   4   5   3   4   5   6   4   5   6   7   5   6   7   8   6   7   8   9   7   8   9  10   8   9  10  11   9  10  11  12  
 6   5   6   7   5   4   5   6   4   3   4   5   3   2   3   4   2   1   2   3   1   0   1   2   2   1   2   3   3   2   3   4   4   3   4   5   5   4   5   6   6   5   6   7   7   6   7   8   8   7   8   9   9   8   9  10  10   9  10  11  
 7   6   5   6   6   5   4   5   5   4   3   4   4   3   2   3   3   2   1   2   2   1   0   1   3   2   1   2   4   3   2   3   5   4   3   4   6   5   4   5   7   6   5   6   8   7   6   7   9   8   7   8  10   9   8   9  11  10   9  10  
 8   7   6   5   7   6   5   4   6   5   4   3   5   4   3   2   4   3   2   1   3   2   1   0   4   3   2   1   5   4   3   2   6   5   4   3   7   6   5   4   8   7   6   5   9   8   7   6  10   9   8   7  11  10   9   8  12  11  10   9  
 6   7   8   9   5   6   7   8   4   5   6   7   3   4   5   6   2   3   4   5   1   2   3   4   0   1   2   3   1   2   3   4   2   3   4   5   3   4   5   6   4   5   6   7   5   6   7   8   6   7   8   9   7   8   9  10   8   9  10  11  
 7   6   7   8   6   5   6   7   5   4   5   6   4   3   4   5   3   2   3   4   2   1   2   3   1   0   1   2   2   1   2   3   3   2   3   4   4   3   4   5   5   4   5   6   6   5   6   7   7   6   7   8   8   7   8   9   9   8   9  10  
 8   7   6   7   7   6   5   6   6   5   4   5   5   4   3   4   4   3   2   3   3   2   1   2   2   1   0   1   3   2   1   2   4   3   2   3   5   4   3   4   6   5   4   5   7   6   5   6   8   7   6   7   9   8   7   8  10   9   8   9  
 9   8   7   6   8   7   6   5   7   6   5   4   6   5   4   3   5   4   3   2   4   3   2   1   3   2   1   0   4   3   2   1   5   4   3   2   6   5   4   3   7   6   5   4   8   7   6   5   9   8   7   6  10   9   8   7  11  10   9   8  
 7   8   9  10   6   7   8   9   5   6   7   8   4   5   6   7   3   4   5   6   2   3   4   5   1   2   3   4   0   1   2   3   1   2   3   4   2   3   4   5   3   4   5   6   4   5   6   7   5   6   7   8   6   7   8   9   7   8   9  10  
 8   7   8   9   7   6   7   8   6   5   6   7   5   4   5   6   4   3   4   5   3   2   3   4   2   1   2   3   1   0   1   2   2   1   2   3   3   2   3   4   4   3   4   5   5   4   5   6   6   5   6   7   7   6   7   8   8   7   8   9  
 9   8   7   8   8   7   6   7   7   6   5   6   6   5   4   5   5   4   3   4   4   3   2   3   3   2   1   2   2   1   0   1   3   2   1   2   4   3   2   3   5   4   3   4   6   5   4   5   7   6   5   6   8   7   6   7   9   8   7   8  
10   9   8   7   9   8   7   6   8   7   6   5   7   6   5   4   6   5   4   3   5   4   3   2   4   3   2   1   3   2   1   0   4   3   2   1   5   4   3   2   6   5   4   3   7   6   5   4   8   7   6   5   9   8   7   6  10   9   8   7  
 8   9  10  11   7   8   9  10   6   7   8   9   5   6   7   8   4   5   6   7   3   4   5   6   2   3   4   5   1   2   3   4   0   1   2   3   1   2   3   4   2   3   4   5   3   4   5   6   4   5   6   7   5   6   7   8   6   7   8   9  
 9   8   9  10   8   7   8   9   7   6   7   8   6   5   6   7   5   4   5   6   4   3   4   5   3   2   3   4   2   1   2   3   1   0   1   2   2   1   2   3   3   2   3   4   4   3   4   5   5   4   5   6   6   5   6   7   7   6   7   8  
10   9   8   9   9   8   7   8   8   7   6   7   7   6   5   6   6   5   4   5   5   4   3   4   4   3   2   3   3   2   1   2   2   1   0   1   3   2   1   2   4   3   2   3   5   4   3   4   6   5   4   5   7   6   5   6   8   7   6   7  
11  10   9   8  10   9   8   7   9   8   7   6   8   7   6   5   7   6   5   4   6   5   4   3   5   4   3   2   4   3   2   1   3   2   1   0   4   3   2   1   5   4   3   2   6   5   4   3   7   6   5   4   8   7   6   5   9   8   7   6  
 9  10  11  12   8   9  10  11   7   8   9  10   6   7   8   9   5   6   7   8   4   5   6   7   3   4   5   6   2   3   4   5   1   2   3   4   0   1   2   3   1   2   3   4   2   3   4   5   3   4   5   6   4   5   6   7   5   6   7   8  
10   9  10  11   9   8   9  10   8   7   8   9   7   6   7   8   6   5   6   7   5   4   5   6   4   3   4   5   3   2   3   4   2   1   2   3   1   0   1   2   2   1   2   3   3   2   3   4   4   3   4   5   5   4   5   6   6   5   6   7  
11  10   9  10  10   9   8   9   9   8   7   8   8   7   6   7   7   6   5   6   6   5   4   5   5   4   3   4   4   3   2   3   3   2   1   2   2   1   0   1   3   2   1   2   4   3   2   3   5   4   3   4   6   5   4   5   7   6   5   6  
12  11  10   9  11  10   9   8  10   9   8   7   9   8   7   6   8   7   6   5   7   6   5   4   6   5   4   3   5   4   3   2   4   3   2   1   3   2   1   0   4   3   2   1   5   4   3   2   6   5   4   3   7   6   5   4   8   7   6   5  
10  11  12  13   9  10  11  12   8   9  10  11   7   8   9  10   6   7   8   9   5   6   7   8   4   5   6   7   3   4   5   6   2   3   4   5   1   2   3   4   0   1   2   3   1   2   3   4   2   3   4   5   3   4   5   6   4   5   6   7  
11  10  11  12  10   9  10  11   9   8   9  10   8   7   8   9   7   6   7   8   6   5   6   7   5   4   5   6   4   3   4   5   3   2   3   4   2   1   2   3   1   0   1   2   2   1   2   3   3   2   3   4   4   3   4   5   5   4   5   6  
12  11  10  11  11  10   9  10  10   9   8   9   9   8   7   8   8   7   6   7   7   6   5   6   6   5   4   5   5   4   3   4   4   3   2   3   3   2   1   2   2   1   0   1   3   2   1   2   4   3   2   3   5   4   3   4   6   5   4   5  
13  12  11  10  12  11  10   9  11  10   9   8  10   9   8   7   9   8   7   6   8   7   6   5   7   6   5   4   6   5   4   3   5   4   3   2   4   3   2   1   3   2   1   0   4   3   2   1   5   4   3   2   6   5   4   3   7   6   5   4  
11  12  13  14  10  11  12  13   9  10  11  12   8   9  10  11   7   8   9  10   6   7   8   9   5   6   7   8   4   5   6   7   3   4   5   6   2   3   4   5   1   2   3   4   0   1   2   3   1   2   3   4   2   3   4   5   3   4   5   6  
12  11  12  13  11  10  11  12  10   9  10  11   9   8   9  10   8   7   8   9   7   6   7   8   6   5   6   7   5   4   5   6   4   3   4   5   3   2   3   4   2   1   2   3   1   0   1   2   2   1   2   3   3   2   3   4   4   3   4   5  
13  12  11  12  12  11  10  11  11  10   9  10  10   9   8   9   9   8   7   8   8   7   6   7   7   6   5   6   6   5   4   5   5   4   3   4   4   3   2   3   3   2   1   2   2   1   0   1   3   2   1   2   4   3   2   3   5   4   3   4  
14  13  12  11  13  12  11  10  12  11  10   9  11  10   9   8  10   9   8   7   9   8   7   6   8   7   6   5   7   6   5   4   6   5   4   3   5   4   3   2   4   3   2   1   3   2   1   0   4   3   2   1   5   4   3   2   6   5   4   3  
12  13  14  15  11  12  13  14  10  11  12  13   9  10  11  12   8   9  10  11   7   8   9  10   6   7   8   9   5   6   7   8   4   5   6   7   3   4   5   6   2   3   4   5   1   2   3   4   0   1   2   3   1   2   3   4   2   3   4   5  
13  12  13  14  12  11  12  13  11  10  11  12  10   9  10  11   9   8   9  10   8   7   8   9   7   6   7   8   6   5   6   7   5   4   5   6   4   3   4   5   3   2   3   4   2   1   2   3   1   0   1   2   2   1   2   3   3   2   3   4  
14  13  12  13  13  12  11  12  12  11  10  11  11  10   9  10  10   9   8   9   9   8   7   8   8   7   6   7   7   6   5   6   6   5   4   5   5   4   3   4   4   3   2   3   3   2   1   2   2   1   0   1   3   2   1   2   4   3   2   3  
15  14  13  12  14  13  12  11  13  12  11  10  12  11  10   9  11  10   9   8  10   9   8   7   9   8   7   6   8   7   6   5   7   6   5   4   6   5   4   3   5   4   3   2   4   3   2   1   3   2   1   0   4   3   2   1   5   4   3   2  
13  14  15  16  12  13  14  15  11  12  13  14  10  11  12  13   9  10  11  12   8   9  10  11   7   8   9  10   6   7   8   9   5   6   7   8   4   5   6   7   3   4   5   6   2   3   4   5   1   2   3   4   0   1   2   3   1   2   3   4  
14  13  14  15  13  12  13  14  12  11  12  13  11  10  11  12  10   9  10  11   9   8   9  10   8   7   8   9   7   6   7   8   6   5   6   7   5   4   5   6   4   3   4   5   3   2   3   4   2   1   2   3   1   0   1   2   2   1   2   3  
15  14  13  14  14  13  12  13  13  12  11  12  12  11  10  11  11  10   9  10  10   9   8   9   9   8   7   8   8   7   6   7   7   6   5   6   6   5   4   5   5   4   3   4   4   3   2   3   3   2   1   2   2   1   0   1   3   2   1   2  
16  15  14  13  15  14  13  12  14  13  12  11  13  12  11  10  12  11  10   9  11  10   9   8  10   9   8   7   9   8   7   6   8   7   6   5   7   6   5   4   6   5   4   3   5   4   3   2   4   3   2   1   3   2   1   0   4   3   2   1  
14  15  16  17  13  14  15  16  12  13  14  15  11  12  13  14  10  11  12  13   9  10  11  12   8   9  10  11   7   8   9  10   6   7   8   9   5   6   7   8   4   5   6   7   3   4   5   6   2   3   4   5   1   2   3   4   0   1   2   3  
15  14  15  16  14  13  14  15  13  12  13  14  12  11  12  13  11  10  11  12  10   9  10  11   9   8   9  10   8   7   8   9   7   6   7   8   6   5   6   7   5   4   5   6   4   3   4   5   3   2   3   4   2   1   2   3   1   0   1   2  
16  15  14  15  15  14  13  14  14  13  12  13  13  12  11  12  12  11  10  11  11  10   9  10  10   9   8   9   9   8   7   8   8   7   6   7   7   6   5   6   6   5   4   5   5   4   3   4   4   3   2   3   3   2   1   2   2   1   0   1  
17  16  15  14  16  15  14  13  15  14  13  12  14  13  12  11  13  12  11  10  12  11  10   9  11  10   9   8  10   9   8   7   9   8   7   6   8   7   6   5   7   6   5   4   6   5   4   3   5   4   3   2   4   3   2   1   3   2   1   0  

 0   0   0   0   0   0   0   0   0   0   0   0   0   0   0   0   0   0   0   0   0   0   0   0   0   0   0   0   0   0   0   0   0   0   0   0   0   0   0   0   0   0   0   0   0   0   0   0   0   0   0   0   0   0   0   0   0   0   0   0  
 0   0   0   0   0   0   0   0   0   0   0   0   0   0   0   0   0   0   0   0  37   0   0   0   0   0   1   0   0   0   0   0   0   0   0   0   0   0   0   0   0   0   0   0   0   0   0   0   0   0   0   0   0   0   0   0   0   0   0   0  
 0   0   0   0   0   0   0   0   0   0  51   0   0   0   0   0   0   0   0   0   0   0   0   0   0   0   0   0   0   0   0   0   0   0   0   0   0   0   0   0   0   0   0   0   0   0   0   0   0   0   0   0   0   0   0   0   0   0   0   0  
 0   0   0   0   0   0   0   0   0   0   0   0   0   0   0   0   0   0   0   0   0   0   0   0   0   0   0   0   0   0   0   0   0   0   0   0   0   0   0   0   0   0   0   0   0   0   0   0   0   0   0   0   0   0   0   0   0   0   0   0  
 0   0   0   0   0   0   1   0   0   0   0   0   0   0   0   0   0   0   0   0   0   0   0   0   0   0   0   0   0   0   0   0   0   0   0   0   0   0   0   0   0   0   0   0   0  57   0   0   0   0   0   0   0   0   0   0   0   0   0   0  
 0   0   0   0   0   0   0   0   0   0   0   0   0   0   0   0   0   0   0   0   0   0   0   6   0   0   0   0   0   0   0   0   0   0   0   0   0   0   0   0   0   0   0   0   0   0   0   0   0   0   0   0   0   0   0   0   0   0   0   0  
 0   0   0   0   1   0   0   0   0   0   0   0   0   0   0   0   0   0   0   0   0   0   0   0   0   0   0   0   0   0   0   0   0   0   0   0   0   0   0   0   0   0   0   0   0  40   0   0   0   0   0   0   0   0   0   0   0   0   0   0  
 0   0   0   0   0   0   0   0   0   0   0   1   0   0   0   0   0   0   0   0   0   0   0   0   0   0   0   0   0   0   0   0   0   0   0   0   0   0   0   0   0   0   0   0   0   0   0   0   0   0   0   0   0   0   0   0   0   0   0   0  
 0   0   0   0   0   0   0   0   0   0   0   0   0   0   0   0   0   0   0   0   0   0   0   0   0   0   0   0   0   0   0   0   0   0   0   0   0   0   0   0   0   0   0   0   0   0   0   0   0   0   0   0   0   0   0   0   0   0   0   0  
 0   0   0   0   0   0   0   0   0   0   0   0   0   0   0   0   0   0   0   0   0   0   0   0   0   0   0   1   0   0   0   0   0   0   0   0   0   0   0   0   0   0  50   0   0   0   0   0   0   0   0   0   0   0   0   0   0   0   0   0  
 0   0   3   0   0   0   0   0   0   0   0   0   0   0   0   0   0   0   0   0   0   0   0   0   0   0   0   0   0   0   0   0   0   0   0   0   0   0   0   0   0   0   0   0   0   0   0   0   0   0   0   0   0   0   0   0   0   0   0   0  
 0   0   0   0   0   0   0  38   0   0   0   0   0   0   0   0   0   0   0   0   0   0   0   0   0   0   0   0   1   0   0   0   0   0   0   0   0   0   0   0   0   0   0   0   0   0   0   0   0   0   0   0   0   0   0   0   0   0   0   0  
 0   0   0   0   0   0   0   0   0   0   0   0   0   0   0   0   0   0   0   0   0   0   0   0   0   0   0   0   0   0   0   0   0   0   0   0   0   1   0   0   0   0   0   0   0   0   0   0   0   0   0   0   0   0   0   0   0   0   0   0  
 0   0   0   0   0   0   0   0   0   0   0   0   0   0   0   0   0   0   0   0   0   0   0   0   0   0   0   0   0   0   0   0   0   0   0   0   0   0   0   0   0   0   0   1   0   0   0   0   0   0   0   0   0   0   0   0   0   0   0   0  
 0   0   0   0   0   0   0   0   0   0   0   0   0   0   0   0   0   0   0   0   0   0   0   0   0   0   0   0   0   0   0   0   0   0   0   0   0   0   0   1   0   0   0   0   0   0   0   0   0   0   5   0  23   0   0   0   0   0   0   0  
 0   0   0   0   0   0   0   0   0   0   0   0   0   0   0   0   0   0   0   0   0   0   0   0   0   0   0   0   0   0   0   0   0   0   0   0   0   0   0   0   0   0   0   0   0   0   0   1   0   1   0   0   0   0   0   0   0   0   0   0  
 0   0   0   0   0   0   0   0   0   0   0   0   0   0   0   0   0   0   0   0   0   0   0   0   0   0   0   0   0   0   0   0   0   0   0   0   0   0   0   0   0   0   0   0   0   0   0   0   0   0   0   0   0   0   0   0   0   0   0   0  
 0   0   0   0   0   0   0   0   0   0   0   0   0   0   0   0   0   0   0   0   0   0   0   0   0   0   0   0   0   0   0   0   0   0   0   0   0   0   0   0   0   0   0   0   0   0   0   0   0   0   0   0   0   0   0   0   0   0   0   0  
 0   0   0   0   0   0   0   0   0   0   0   0   0   0   0   0   0   0   0   0   0   0   0   0   0   0   0   0   0   0   0   0   0   0   0   0   0   0   0   0   0   0   0   0   0   0   0   0   0   0   0   0   0   0   0   0   0   0   0   0  
 0   0   0   0   0   0   0   0   0   0   0   0   0   0   0   0   0   0   0   0   0   0   0   0   0   0   0   0   0   0   0   0   0   1   0   0   0   0   0   0   0   0   0   0   0   0   0   0   0   0   0   0   0   0   0   0   0   0   0   0  
 0   1   0   0   0   0   0   0   0   0   0   0   0   0   0   0   0   0   0   0   0   0   0   0  12   0   0   0   0   0   0   0   0   0   0   0   0   0   0   0   0   0   0   0   0   0   0   0   0   0   0   1   0   0   0   0   0   0   0   0  
 0   0   0   0   0   0   0   0   0   0   0   0   0   0   0   0   0   0   0   0   0   0   0   0   0   0   0   0   0   0  86   0   0   0   0   0   3   0   0   0   0   0   0   0   0   0   0   0   0   0   0   0   0   0   0   0   0   0   0   0  
 0   0   0   0   0   0   0   0   0   0   0   0   0   0   0   0   0   0   0   0   0   0   0   0   0   0   0   0   0   0   0   0   0   0   0   0   0   0   0   0   0   0   0   0   0   0   0   0   0   0   0   0   0   0   0   0   0   0   0   0  
 0   0   0   0   0   1   0   0   0   0   0   0   0   0   0   0   0   0   0   0   0   0   0   0   0   0   0   0   0   0   0   0   0   0   0   0   0   0   0   0   0   0   0   0   0   0   0   0   0   0   0   0   0   0   0   0   0   0   0   0  
 0   0   0   0   0   0   0   0   0   0   0   0   0   0   0   0   0   0   0   0  19   0   0   0   0   0   0   0   0   0   0   0   0   0   0   0   0   0   0   0   0   0   0   0   0   0   0   0   0   0   0   1   0   0   0   0   0   0   0   0  
 0   0   0   0   0   0   0   0   0   0   0   0   0   0   0   0   0   0   0   0   0   0   0   0   0   0   0   0   0   0   0   0   0   0   0   0   0   0   0   0   0   0   0   0   0   0   0   0   0   0   0   0   0   0   0   0   0   0   0   0  
 0   3   0   0   0   0   0   0   0   0   0   0   0   0   0   0   0   0   0   0   0   0   0   0   0   0   0   0   0   0   0   0   0   0   0   0   0   0   6   0   0   0   0   0   0   0   0   0   0   0   0   0   0   0   0   0   0   0   0   0  
 0   0   0   0   0   0   0   0   0  41   0   0   0   0   0   0   0   0   0   0   0   0   0   0   0   0   0   0   1   0   0   0   0   0   0   0   0   0   0   0   0   0   1   0   0   0   0   0   0   0   0   0   0   0   0   0   0   0   0   0  
 0   0   0   0   0   0   0   0   0   0   0  34   0   0   0   0   0   0   0   0   0   0   0   0   0   0   0   1   0   0   0   0   0   0   0   0   0   0   0   0   0   0   0   0   0   0   0   0   0   0   0   0   0   0   0   0   0   0   0   0  
 0   0   0   0   0   0   0   0   0   0   0   0   0   0   0   0   0   0   0   0   0   0   0   0   0   0   0   0   0   0   0   0   0   0   0  68   0   0   0   0   0   0   0   0   0   0   0   0   0   0   0   0   0   0  94   0   2   0   0   0  
 0   0   0   0   0   0   0   0   0   0   0   0   0   0   0   0   0   0   0   0   0   1   0   0   0   0   0   0   0   0   0   0   0   0   0   0   1   0   0   0   0   0   1   0   0   0   0   0   0   0   0   0   0   0   0   0   0   0   0   0  
 0   0   0   0   0   0   0   0   0   0   0   0   0   0   0   0   0   0   0   0   0   0   0   0   0   0   0   0   0   0   0   0   0   0   0   0   0   0   0   0   0   0   0   0   0   0   0   0   0   0   0   0   0   0   0   0   0   0   0   0  
 0   0   0   0   0   0   0   0   0   0   0   0   0   0   0   0   0   0   0   0   0   0   0   0   0   0   0   0   0   0   0   0   0   0   0   0   0   0   0   0   0   0   0   0   0   0   0   0   0   0   0   0   0   0   0   0   0   0   0   0  
 0   0   0   0   0   0   0   0   0   0   0   0   0   0   0   0   0   0   0   1   0   0   0   0   0   0   0   0   0   0   0   0   0   0   0   0   0   0   0   0   0   0   0   0   0   0   0   0   0   0   0   0   0   0   0   0   0   0   0   0  
 0   0   0   0   0   0   0   0   0   0   0   0   0   0   0   0   0   0   0   0   0   0   0   0   0   0   0   0   0   0   0   0   0   0   0   0   0   0   0   0   0   0   0   0   0   0   0   0   0   0   0   0   1   0   0   0   0   0   0   0  
 0   0   0   0   0   0   0   0   0   0   0   0   0   0   0   0   0   0   0   0   0   0   0   0   0   0   0   0   0   8   0   0   0   0   0   0   0   0   0   0   0   0   0   0   0   0   0   0   0   0   0   0   0   0   0   0   8   0   0   0  
 0   0   0   0   0   0   0   0   0   0   0   0   0   0   0   0   0   0   0   0   0   4   0   0   0   0   0   0   0   0  50   0   0   0   0   0   0   0   0   0   0   0   0   0   0   0   0   0   0   0   0   0   0   0   0   0   0   0   0   0  
 0   0   0   0   0   0   0   0   0   0   0   0   1   0   0   0   0   0   0   0   0   0   0   0   0   0   0   0   0   0   0   0   0   0   0   0   0   0   0   0   0   0   0   0   0   0   0   0   0   0   0   0   0   0   0   0   0   0   0   0  
 0   0   0   0   0   0   0   0   0   0   0   0   0   0   0   0   0   0   0   0   0   0   0   0   0   0   1   0   0   0   0   0   0   0   0   0   0   0   0   0   0   0   0   0   0   0   2   0   0   0   0   0   0   0   0   0   0   0   0   0  
 0   0   0   0   0   0   0   0   0   0   0   0   0   0   1   0   0   0   0   0   0   0   0   0   0   0   0   0   0   0   0   0   0   0   0   0   0   0   0   0   0   0   0   0   0   0   0   0   0   0   1   0   1   0   0   0   0   0   0   0  
 0   0   0   0   0   0   0   0   0   0   0   0   0   0   0   0   0   0   0   0   0   0   0   0   0   0   0   0   0   0   0   0   0   0   0   0   0   0   0   0   0   0   0   0   0   0   0   0   0   0   0   0   0   0   0   0   0   0   0   0  
 0   0   0   0   0   0   0   0   0   0   0   0   0   0   0   0   0   0   0   0   0   0   0   0   0   0   0   0   0   0   0   0   0   0   0   0   0   0   0   0   0   0   0   0   0   0   0   0   0   0   0   0   0   0   0   0   0   0   0   0  
 0   0   0   0   0   0   0   0   0  77   0   0   0   0   0   0   0   0   0   0   0   0   0   0   0   0   0   1   0   0  11   0   0   0   0   0   0   0   0   0   0   0   0   0   0   0   0   0   0   0   0   0   0   0   0   0   0   0   0   0  
 0   0   0   0   0   0   0   0   0   0   0   0   0  14   0   0   0   0   0   0   0   0   0   0   0   0   0   0   0   0   0   0   0   0   0   0   0   0   0   0   0   0   0   0   0   0   0   0   0   0   0   0   0   1   0   0   0   0   0   0  
 0   0   0   0   0   0   0   0   0   0   0   0   0   0   0   0   0   0   0   0   0   0   0   0   0   0   0   0   0   0   0   0   0   0   0   0   0   0   0   0   0   0   0   0   0   0   0   0   0   0   0   0   0   0   0   0   0   1   0   0  
 0   0   0   0  31   0  30   0   0   0   0   0   0   0   0   0   0   0   0   0   0   0   0   0   0   0   0   0   0   0   0   0   0   0   0   0   0   0   0   0   0   0   0   0   0   0   0   0   0   0   0   0   0   0   0   0   0   0   0   0  
 0   0   0   0   0   0   0   0   0   0   0   0   0   0   0   0   0   0   0   0   0   0   0   0   0   0   0   0   0   0   0   0   0   0   0   0   0   0   1   0   0   0   0   0   0   0   0   0   0   0   0   0   0   0   0   0   0   0   0   0  
 0   0   0   0   0   0   0   0   0   0   0   0   0   0   0  43   0   0   0   0   0   0   0   0   0   0   0   0   0   0   0   0   0   0   0   0   0   0   0   0   0   0   0   0   0   0   0   0   0   4   0   0   0   0   0   0   0   0   0   0  
 0   0   0   0   0   0   0   0   0   0   0   0   0   0   0   0   0   0   0   0   0   0   0   0   0   0   0   0   0   0   0   0   0   0   0   0   0   0   0   0   0   0   0   0   0   0   0   0   0   0   0   0   0   0   0   0   0   0   0   0  
 0   0   0   0   0   0   0   0   0   0   0   0   0   0   0   1   0   0   0   0   0   0   0   0   0   0   0   0   0   0   0   0   0   0   0   0   0   0   0   0   0   0   0   0   0   0   0  49   0   0   0   0   0   0   0   0   0   0   0   0  
 0   0   0   0   0   0   0   0   0   0   0   0   0   0   1   0   0   0   0   0   0   0   0   0   0   0   0   0   0   0   0   0   0   0   0   0   0   0   0   1   0   0   0   0   0   0   0   0   0   0   0   0   0   0   0   0   0   0   0   0  
 0   0   0   0   0   0   0   0   0   0   0   0   0   0   0   0   0   0   0   0   1   0   0   0  71   0   0   0   0   0   0   0   0   0   0   0   0   0   0   0   0   0   0   0   0   0   0   0   0   0   0   0   0   0   0   0   0   0   0   0  
 0   0   0   0   0   0   0   0   0   0   0   0   0   0   1   0   0   0   0   0   0   0   0   0   0   0   0   0   0   0   0   0   0   0  83   0   0   0   0  95   0   0   0   0   0   0   0   0   0   0   0   0   0   0   0   0   0   0   0   0  
 0   0   0   0   0   0   0   0   0   0   0   0   0   0   0   0   0   0   0   0   0   0   0   0   0   0   0   0   0   0   0   0   0   0   0   0   0   0   0   0   0   0   0   1   0   0   0   0   0   0   0   0   0   0   0   0   0   0   0   0  
 0   0   0   0   0   0   0   0   0   0   0   0   0   0   0   0   0   0   0   0   0   0   0   0   0   0   0   0   0   1   0   0   0   0   0   0   0   0   0   0   0   0   0   0   0   0   0   0   0   0   0   0   0   0   0   0   0   0   0   0  
 0   0   0   0   0   0   0   0   0   0   0   0   0   0   0   0   0   0   0   0   0   0   0   0   0   0   0   0   0   0   0   0   0   0   0   0   0   0   0   0   0   0   0   0   0   0   0   0   0   0   0   0   0   0   0   0   0   0   0   0  
 0   0   0   0   0   0   0   0   0   0   0   0   0   0   0   0   0   0   0   0   0   0   0   0   0   0   0   0   0   1   0   0   0   0   0  22   0   0   0   0   0   0   0   0   0   0   0   0   0   0   0   0   0   0   0   0   0   0   0   0  
 0   0   0   0   0   0   0   0   0   0   0   0   0   0   0   0   0   0   0   0   0   0   0   0   0   0   0   0   0   0   0   0   0   0   0   0   0   0   0   0   0   0   0   0   1   0   0   0   0   0   0   0   0   0   0   0   0   0   0   0  
 0   0   0   0   0   0   0   0   0   0   0   0   0   0   0   0   0   0   0   0   0   0   0   0   0   0   0   0   0   0   0   0   0   0   0   0   0   0   0   0   0   0   0   0   0   0   0   0   0   0   0   0   0   0   0   0   0   0   0   0  
 0   0   0   0   0   0   0   0   0   0   0   0   0   0   0   0   0   0   0   0   0   0   0   0   0   0   0   0   0   0   0   0   0   0   0   0   0   0   0   0   0   0   0   0   0   0   0   0   0   0   0   0   0   0   0   0   0   0   0   0  
